# fix gcmc example with fix shake

# variables available on command line

variable        T index 293.15
variable        spacing index 5.0

# global model settings

units           real
atom_style      full
boundary        p p p
pair_style      lj/cut/coul/long  12.5 
pair_modify     shift yes mix arithmetic 
kspace_style    pppm 0.00001
bond_style      harmonic
angle_style     harmonic

# box, start molecules on simple cubic lattice

lattice 	sc ${spacing}
region          box block -20 190 -20 45 -35 35 units box
create_box      2 box                       &
                bond/types 1                &
                angle/types 1               &
                extra/bond/per/atom 2       &
                extra/angle/per/atom 1      &
                extra/special/per/atom 2

region		re block 2 171 2 26 -15 14 units box side in 
molecule        h2omol H2O.txt
create_atoms   	0 region re mol h2omol 464563 units box

                        
# rigid SPC/E water model

pair_coeff      1 1 0.15535 3.166
pair_coeff      * 2 0.0000 0.0000       

bond_coeff      1     1000       1.0   
angle_coeff     1      100       109.47

# masses

mass 1 15.9994 
mass 2 1.008
write_data        WATER.data
# MD settings

group           h2o type 1 2
neighbor        2.0 bin
neigh_modify    every 1 delay 1 check yes

fix             mynvt h2o nvt temp ${T} ${T} 100
fix             wshake h2o shake 0.0001 50 0 b 1 a 1 mol h2omol


thermo          1000
thermo_style      custom step pe ke atoms  

run             0
#write_data        C39H37O10NS_gcmc4ns.data


